Gurobi Optimizer version 9.1.2 build v9.1.2rc0 (linux64)
Thread count: 36 physical cores, 72 logical processors, using up to 32 threads
Optimize a model with 12 rows, 57 columns and 590 nonzeros
Model fingerprint: 0xf32eec78
Model has 47 quadratic constraints
Coefficient statistics:
  Matrix range     [2e-05, 3e+00]
  QMatrix range    [1e+00, 1e+00]
  QLMatrix range   [1e+00, 1e+00]
  Objective range  [8e-03, 7e-01]
  Bounds range     [1e+00, 1e+00]
  RHS range        [1e+00, 1e+00]
Presolve removed 9 rows and 0 columns

Continuous model is non-convex -- solving as a MIP.

Presolve removed 9 rows and 0 columns
Presolve time: 0.00s
Presolved: 189 rows, 57 columns, 443 nonzeros
Presolved model has 47 bilinear constraint(s)
Variable types: 57 continuous, 0 integer (0 binary)

Root relaxation: objective -1.743721e+00, 44 iterations, 0.00 seconds

    Nodes    |    Current Node    |     Objective Bounds      |     Work
 Expl Unexpl |  Obj  Depth IntInf | Incumbent    BestBd   Gap | It/Node Time

     0     0   -1.74372    0   38          -   -1.74372      -     -    0s
H    0     0                       0.6147548   -1.74372   384%     -    0s
     0     0   -1.64739    0    1    0.61475   -1.64739   368%     -    0s
H    0     0                      -1.6450460   -1.64739  0.14%     -    0s
     0     0     cutoff    0        -1.64505   -1.64505  0.00%     -    0s

Cutting planes:
  RLT: 25
  BQP: 3

Explored 1 nodes (76 simplex iterations) in 0.01 seconds
Thread count was 32 (of 72 available processors)

Solution count 2: -1.64505 0.614755 
No other solutions better than -1.64505

Optimal solution found (tolerance 1.00e-04)
Best objective -1.645045978473e+00, best bound -1.645045978473e+00, gap 0.0000%

User-callback calls 78, time in user-callback 0.00 sec
Gurobi Optimizer version 9.1.2 build v9.1.2rc0 (linux64)
Thread count: 36 physical cores, 72 logical processors, using up to 32 threads
Optimize a model with 24 rows, 125 columns and 2580 nonzeros
Model fingerprint: 0xb6ec015e
Model has 105 quadratic constraints
Coefficient statistics:
  Matrix range     [6e-06, 5e+01]
  QMatrix range    [1e+00, 1e+00]
  QLMatrix range   [1e+00, 1e+00]
  Objective range  [1e-02, 1e+00]
  Bounds range     [1e+00, 1e+00]
  RHS range        [1e+00, 1e+00]
Presolve removed 10 rows and 0 columns

Continuous model is non-convex -- solving as a MIP.

Presolve removed 10 rows and 0 columns
Presolve time: 0.00s
Presolved: 429 rows, 125 columns, 2142 nonzeros
Presolved model has 105 bilinear constraint(s)
Variable types: 125 continuous, 0 integer (0 binary)

Root relaxation: objective -5.703035e+00, 141 iterations, 0.00 seconds

    Nodes    |    Current Node    |     Objective Bounds      |     Work
 Expl Unexpl |  Obj  Depth IntInf | Incumbent    BestBd   Gap | It/Node Time

     0     0   -5.70304    0   95          -   -5.70304      -     -    0s
H    0     0                       0.2435557   -5.70304  2442%     -    0s
     0     0   -4.47524    0   83    0.24356   -4.47524  1937%     -    0s
H    0     0                      -1.4023778   -4.47524   219%     -    0s
     0     0   -4.43941    0   83   -1.40238   -4.43941   217%     -    0s
     0     0   -4.33526    0   70   -1.40238   -4.33526   209%     -    0s
H    0     0                      -1.9797880   -4.33526   119%     -    0s
     0     0   -4.30441    0   70   -1.97979   -4.30441   117%     -    0s
     0     0   -4.27248    0   70   -1.97979   -4.27248   116%     -    0s
H    0     0                      -2.0063029   -4.27248   113%     -    0s
     0     0   -4.26375    0   70   -2.00630   -4.26375   113%     -    0s
     0     0   -4.24853    0   84   -2.00630   -4.24853   112%     -    0s
     0     0   -4.24686    0   88   -2.00630   -4.24686   112%     -    0s
     0     0   -4.24321    0   85   -2.00630   -4.24321   111%     -    0s
     0     0   -4.24291    0   88   -2.00630   -4.24291   111%     -    0s
     0     0   -4.24183    0   88   -2.00630   -4.24183   111%     -    0s
     0     0   -4.24109    0   88   -2.00630   -4.24109   111%     -    0s
H    0     0                      -2.5239255   -4.24109  68.0%     -    0s
H    0     0                      -2.5563808   -4.24109  65.9%     -    0s
H    0     0                      -2.7494824   -4.24109  54.3%     -    0s
H    0     0                      -2.8288447   -4.24109  49.9%     -    0s
     0     2   -4.24109    0   88   -2.82884   -4.24109  49.9%     -    0s
*  743   750              26      -3.0481961   -3.80365  24.8%  27.2    0s
*  942   864              32      -3.3099605   -3.80365  14.9%  24.7    0s
* 1271   894              27      -3.3157092   -3.77134  13.7%  22.8    0s
* 1426  1034              27      -3.4458510   -3.77134  9.45%  22.3    0s
* 1621  1102              36      -3.4840333   -3.73448  7.19%  22.0    0s
* 1913  1213              26      -3.4853072   -3.64435  4.56%  20.6    0s
* 2244  1431              24      -3.4922933   -3.61448  3.50%  18.9    0s
* 2268  1431              31      -3.4944981   -3.61448  3.43%  18.8    0s
* 2271  1431              33      -3.4945062   -3.61448  3.43%  18.7    0s
* 2281  1431              26      -3.5019488   -3.61448  3.21%  18.7    0s
* 2334  1431              21      -3.5494056   -3.61448  1.83%  18.4    0s
* 2775   952              18      -3.5503096   -3.55642  0.17%  16.3    0s
* 2778   952              20      -3.5503159   -3.55642  0.17%  16.3    0s
* 2780   952              21      -3.5503169   -3.55642  0.17%  16.3    0s
* 2782   952              22      -3.5503174   -3.55642  0.17%  16.3    0s
* 2783   952              22      -3.5503185   -3.55642  0.17%  16.3    0s
* 3345   315              24      -3.5503250   -3.55037  0.00%  13.6    0s
* 3346   315              24      -3.5503262   -3.55037  0.00%  13.6    0s
* 3347   315              23      -3.5503290   -3.55037  0.00%  13.6    0s
* 3352   315              20      -3.5503347   -3.55037  0.00%  13.6    0s

Cutting planes:
  RLT: 54
  BQP: 8
  PSD: 40

Explored 3882 nodes (46053 simplex iterations) in 0.77 seconds
Thread count was 32 (of 72 available processors)

Solution count 10: -3.55033 -3.55033 -3.55033 ... -3.54941

Optimal solution found (tolerance 1.00e-04)
Best objective -3.550334698831e+00, best bound -3.550353865153e+00, gap 0.0005%

User-callback calls 8078, time in user-callback 0.00 sec



objective value: -3.5503346988308486
objective bound: -3.5503538651533413
x_opt: [0.0, 0.0, 1.0, 0.0, 1.0, 0.6722460409513565, 1.0, 1.0, 1.0, 0.0, 0.0, 0.19644148804516856, 0.00010513068555678067, 0.0, 0.005446282609973405, 0.4978294905973177, 0.0, 0.0, 0.0, 0.0]
GUROBI solution time: 0.7662758827209473




